============================[ Problem Statistics ]=============================|                                                                             ||  Number of variables:          4242                                         ||  Number of clauses:            9897                                         ||  Parse time:                   0.31 s                                       ||                                                                             |============================[ Search Statistics ]==============================| Conflicts |          ORIGINAL         |          LEARNT          | Progress ||           |    Vars  Clauses Literals |    Limit  Clauses Lit/Cl |          |===============================================================================|       100 |    1591     6102   455683 |     2237      100     53 | 62.501 % |===============================================================================restarts              : 2conflicts             : 172            (365 /sec)decisions             : 341            (0.00 % random) (724 /sec)propagations          : 10004          (21240 /sec)conflict literals     : 11631          (95.28 % deleted)CPU time              : 0.471 sSATISFIABLE